p cnf 1096
-7 -97
-8 -36
-9 -39
-10 -42
-11 -114
-12 -120
-13 -126
-14 -148
-15 -167
-16 -185
-17 -195
-18 -214
-19 -233
-20 -251
-21 -261
-22 -280
-23 -299
-24 -317
-25 -327
-26 -354
-27 -360
-28 1
-28 -11
-1 11 28
-29 2
-29 -12
-2 12 29
-30 3
-30 -13
-3 13 30
-31 -28
-31 29
28 -29 31
-32 -28
-32 -31
28 31 32
-33 30
-33 32
-30 -32 33
-34 -7
-34 28
7 -28 34
-35 7
-35 8
-7 -8 35
-36 -34
-36 -35
34 35 36
-37 -7
-37 31
7 -31 37
-38 7
-38 9
-7 -9 38
-39 -37
-39 -38
37 38 39
-40 -7
-40 33
7 -33 40
-41 7
-41 10
-7 -10 41
-42 -40
-42 -41
40 41 42
-43 1
-43 -36
-1 36 43
-44 2
-44 -39
-2 39 44
-45 3
-45 -42
-3 42 45
-46 14
-46 -15
-14 15 46
-47 -16
-47 -17
16 17 47
-48 46
-48 47
-46 -47 48
-49 -14
-49 -15
14 15 49
-50 -16
-50 17
16 -17 50
-51 49
-51 50
-49 -50 51
-52 -48
-52 -51
48 51 52
-53 43
-53 -52
-43 52 53
-54 18
-54 -19
-18 19 54
-55 -20
-55 -21
20 21 55
-56 54
-56 55
-54 -55 56
-57 -18
-57 -19
18 19 57
-58 -20
-58 21
20 -21 58
-59 57
-59 58
-57 -58 59
-60 -56
-60 -59
56 59 60
-61 44
-61 -60
-44 60 61
-62 22
-62 -23
-22 23 62
-63 -24
-63 -25
24 25 63
-64 62
-64 63
-62 -63 64
-65 -22
-65 -23
22 23 65
-66 -24
-66 25
24 -25 66
-67 65
-67 66
-65 -66 67
-68 -64
-68 -67
64 67 68
-69 45
-69 -68
-45 68 69
-70 -53
-70 -61
53 61 70
-71 -69
-71 70
69 -70 71
-72 -14
-72 15
14 -15 72
-73 16
-73 -17
-16 17 73
-74 72
-74 73
-72 -73 74
-75 16
-75 17
-16 -17 75
-76 46
-76 75
-46 -75 76
-77 -74
-77 -76
74 76 77
-78 43
-78 -77
-43 77 78
-79 -18
-79 19
18 -19 79
-80 20
-80 -21
-20 21 80
-81 79
-81 80
-79 -80 81
-82 20
-82 21
-20 -21 82
-83 54
-83 82
-54 -82 83
-84 -81
-84 -83
81 83 84
-85 44
-85 -84
-44 84 85
-86 -22
-86 23
22 -23 86
-87 24
-87 -25
-24 25 87
-88 86
-88 87
-86 -87 88
-89 24
-89 25
-24 -25 89
-90 62
-90 89
-62 -89 90
-91 -88
-91 -90
88 90 91
-92 45
-92 -91
-45 91 92
-93 -78
-93 -85
78 85 93
-94 -92
-94 93
92 -93 94
-95 7
-95 94
-7 -94 95
-96 71
-96 95
-71 -95 96
-97 71
-97 -96
-71 96 97
-98 -11
-98 12
11 -12 98
-99 -11
-99 -98
11 98 99
-100 13
-100 99
-13 -99 100
-101 49
-101 75
-49 -75 101
-102 43
-102 101
-43 -101 102
-103 57
-103 82
-57 -82 103
-104 44
-104 103
-44 -103 104
-105 65
-105 89
-65 -89 105
-106 45
-106 105
-45 -105 106
-107 -102
-107 -104
102 104 107
-108 -106
-108 107
106 -107 108
-109 46
-109 73
-46 -73 109
-110 43
-110 109
-43 -109 110
-111 11
-111 -108
-11 108 111
-112 11
-112 -111
-11 111 112
-113 -110
-113 112
110 -112 113
-114 -110
-114 -113
110 113 114
-115 54
-115 80
-54 -80 115
-116 44
-116 115
-44 -115 116
-117 98
-117 -108
-98 108 117
-118 12
-118 -117
-12 117 118
-119 -116
-119 118
116 -118 119
-120 -116
-120 -119
116 119 120
-121 62
-121 87
-62 -87 121
-122 45
-122 121
-45 -121 122
-123 100
-123 -108
-100 108 123
-124 13
-124 -123
-13 123 124
-125 -122
-125 124
122 -124 125
-126 -122
-126 -125
122 125 126
-127 -11
-127 -12
11 12 127
-128 -13
-128 127
13 -127 128
-129 -26
-129 27
26 -27 129
-130 -15
-130 -49
15 49 130
-131 16
-131 49
-16 -49 131
-132 -16
-132 -130
16 130 132
-133 -131
-133 -132
131 132 133
-134 -4
-134 14
4 -14 134
-135 14
-135 -134
-14 134 135
-136 15
-136 -135
-15 135 136
-137 4
-137 -14
-4 14 137
-138 -15
-138 137
15 -137 138
-139 -72
-139 -138
72 138 139
-140 16
-140 136
-16 -136 140
-141 -16
-141 -139
16 139 141
-142 -140
-142 -141
140 141 142
-143 17
-143 -133
-17 133 143
-144 -17
-144 -142
17 142 144
-145 -143
-145 -144
143 144 145
-146 43
-146 -145
-43 145 146
-147 14
-147 -43
-14 43 147
-148 -146
-148 -147
146 147 148
-149 14
-149 128
-14 -128 149
-150 -15
-150 149
15 -149 150
-151 -72
-151 -150
72 150 151
-152 16
-152 46
-16 -46 152
-153 -16
-153 -151
16 151 153
-154 -152
-154 -153
152 153 154
-155 15
-155 -136
-15 136 155
-156 -14
-156 -129
14 129 156
-157 15
-157 156
-15 -156 157
-158 -46
-158 -157
46 157 158
-159 16
-159 -155
-16 155 159
-160 -16
-160 -158
16 158 160
-161 -159
-161 -160
159 160 161
-162 17
-162 -154
-17 154 162
-163 -17
-163 -161
17 161 163
-164 -162
-164 -163
162 163 164
-165 43
-165 -164
-43 164 165
-166 15
-166 -43
-15 43 166
-167 -165
-167 -166
165 166 167
-168 14
-168 -128
-14 128 168
-169 14
-169 15
-14 -15 169
-170 -15
-170 168
15 -168 170
-171 -169
-171 -170
169 170 171
-172 -15
-172 16
15 -16 172
-173 -16
-173 -171
16 171 173
-174 -172
-174 -173
172 173 174
-175 -14
-175 129
14 -129 175
-176 -14
-176 -175
14 175 176
-177 15
-177 -176
-15 176 177
-178 -16
-178 177
16 -177 178
-179 -159
-179 -178
159 178 179
-180 17
-180 -174
-17 174 180
-181 -17
-181 -179
17 179 181
-182 -180
-182 -181
180 181 182
-183 43
-183 -182
-43 182 183
-184 16
-184 -43
-16 43 184
-185 -183
-185 -184
183 184 185
-186 16
-186 -172
-16 172 186
-187 4
-187 14
-4 -14 187
-188 15
-188 187
-15 -187 188
-189 16
-189 188
-16 -188 189
-190 17
-190 -186
-17 186 190
-191 -17
-191 189
17 -189 191
-192 -190
-192 -191
190 191 192
-193 43
-193 -192
-43 192 193
-194 17
-194 -43
-17 43 194
-195 -193
-195 -194
193 194 195
-196 -19
-196 -57
19 57 196
-197 20
-197 57
-20 -57 197
-198 -20
-198 -196
20 196 198
-199 -197
-199 -198
197 198 199
-200 -5
-200 18
5 -18 200
-201 18
-201 -200
-18 200 201
-202 19
-202 -201
-19 201 202
-203 5
-203 -18
-5 18 203
-204 -19
-204 203
19 -203 204
-205 -79
-205 -204
79 204 205
-206 20
-206 202
-20 -202 206
-207 -20
-207 -205
20 205 207
-208 -206
-208 -207
206 207 208
-209 21
-209 -199
-21 199 209
-210 -21
-210 -208
21 208 210
-211 -209
-211 -210
209 210 211
-212 44
-212 -211
-44 211 212
-213 18
-213 -44
-18 44 213
-214 -212
-214 -213
212 213 214
-215 18
-215 128
-18 -128 215
-216 -19
-216 215
19 -215 216
-217 -79
-217 -216
79 216 217
-218 20
-218 54
-20 -54 218
-219 -20
-219 -217
20 217 219
-220 -218
-220 -219
218 219 220
-221 19
-221 -202
-19 202 221
-222 -18
-222 -129
18 129 222
-223 19
-223 222
-19 -222 223
-224 -54
-224 -223
54 223 224
-225 20
-225 -221
-20 221 225
-226 -20
-226 -224
20 224 226
-227 -225
-227 -226
225 226 227
-228 21
-228 -220
-21 220 228
-229 -21
-229 -227
21 227 229
-230 -228
-230 -229
228 229 230
-231 44
-231 -230
-44 230 231
-232 19
-232 -44
-19 44 232
-233 -231
-233 -232
231 232 233
-234 18
-234 -128
-18 128 234
-235 18
-235 19
-18 -19 235
-236 -19
-236 234
19 -234 236
-237 -235
-237 -236
235 236 237
-238 -19
-238 20
19 -20 238
-239 -20
-239 -237
20 237 239
-240 -238
-240 -239
238 239 240
-241 -18
-241 129
18 -129 241
-242 -18
-242 -241
18 241 242
-243 19
-243 -242
-19 242 243
-244 -20
-244 243
20 -243 244
-245 -225
-245 -244
225 244 245
-246 21
-246 -240
-21 240 246
-247 -21
-247 -245
21 245 247
-248 -246
-248 -247
246 247 248
-249 44
-249 -248
-44 248 249
-250 20
-250 -44
-20 44 250
-251 -249
-251 -250
249 250 251
-252 20
-252 -238
-20 238 252
-253 5
-253 18
-5 -18 253
-254 19
-254 253
-19 -253 254
-255 20
-255 254
-20 -254 255
-256 21
-256 -252
-21 252 256
-257 -21
-257 255
21 -255 257
-258 -256
-258 -257
256 257 258
-259 44
-259 -258
-44 258 259
-260 21
-260 -44
-21 44 260
-261 -259
-261 -260
259 260 261
-262 -23
-262 -65
23 65 262
-263 24
-263 65
-24 -65 263
-264 -24
-264 -262
24 262 264
-265 -263
-265 -264
263 264 265
-266 -6
-266 22
6 -22 266
-267 22
-267 -266
-22 266 267
-268 23
-268 -267
-23 267 268
-269 6
-269 -22
-6 22 269
-270 -23
-270 269
23 -269 270
-271 -86
-271 -270
86 270 271
-272 24
-272 268
-24 -268 272
-273 -24
-273 -271
24 271 273
-274 -272
-274 -273
272 273 274
-275 25
-275 -265
-25 265 275
-276 -25
-276 -274
25 274 276
-277 -275
-277 -276
275 276 277
-278 45
-278 -277
-45 277 278
-279 22
-279 -45
-22 45 279
-280 -278
-280 -279
278 279 280
-281 22
-281 128
-22 -128 281
-282 -23
-282 281
23 -281 282
-283 -86
-283 -282
86 282 283
-284 24
-284 62
-24 -62 284
-285 -24
-285 -283
24 283 285
-286 -284
-286 -285
284 285 286
-287 23
-287 -268
-23 268 287
-288 -22
-288 -129
22 129 288
-289 23
-289 288
-23 -288 289
-290 -62
-290 -289
62 289 290
-291 24
-291 -287
-24 287 291
-292 -24
-292 -290
24 290 292
-293 -291
-293 -292
291 292 293
-294 25
-294 -286
-25 286 294
-295 -25
-295 -293
25 293 295
-296 -294
-296 -295
294 295 296
-297 45
-297 -296
-45 296 297
-298 23
-298 -45
-23 45 298
-299 -297
-299 -298
297 298 299
-300 22
-300 -128
-22 128 300
-301 22
-301 23
-22 -23 301
-302 -23
-302 300
23 -300 302
-303 -301
-303 -302
301 302 303
-304 -23
-304 24
23 -24 304
-305 -24
-305 -303
24 303 305
-306 -304
-306 -305
304 305 306
-307 -22
-307 129
22 -129 307
-308 -22
-308 -307
22 307 308
-309 23
-309 -308
-23 308 309
-310 -24
-310 309
24 -309 310
-311 -291
-311 -310
291 310 311
-312 25
-312 -306
-25 306 312
-313 -25
-313 -311
25 311 313
-314 -312
-314 -313
312 313 314
-315 45
-315 -314
-45 314 315
-316 24
-316 -45
-24 45 316
-317 -315
-317 -316
315 316 317
-318 24
-318 -304
-24 304 318
-319 6
-319 22
-6 -22 319
-320 23
-320 319
-23 -319 320
-321 24
-321 320
-24 -320 321
-322 25
-322 -318
-25 318 322
-323 -25
-323 321
25 -321 323
-324 -322
-324 -323
322 323 324
-325 45
-325 -324
-45 324 325
-326 25
-326 -45
-25 45 326
-327 -325
-327 -326
325 326 327
-328 47
-328 169
-47 -169 328
-329 43
-329 328
-43 -328 329
-330 55
-330 235
-55 -235 330
-331 44
-331 330
-44 -330 331
-332 63
-332 301
-63 -301 332
-333 45
-333 332
-45 -332 333
-334 -329
-334 -331
329 331 334
-335 -333
-335 334
333 -334 335
-336 50
-336 72
-50 -72 336
-337 43
-337 336
-43 -336 337
-338 58
-338 79
-58 -79 338
-339 44
-339 338
-44 -338 339
-340 66
-340 86
-66 -86 340
-341 45
-341 340
-45 -340 341
-342 -337
-342 -339
337 339 342
-343 -341
-343 342
341 -342 343
-344 26
-344 -27
-26 27 344
-345 -129
-345 -344
129 344 345
-346 26
-346 27
-26 -27 346
-347 -26
-347 -27
26 27 347
-348 -346
-348 -347
346 347 348
-349 -26
-349 -343
26 343 349
-350 26
-350 343
-26 -343 350
-351 -349
-351 -350
349 350 351
-352 -26
-352 -335
26 335 352
-353 335
-353 -351
-335 351 353
-354 -352
-354 -353
352 353 354
-355 -343
-355 -348
343 348 355
-356 27
-356 343
-27 -343 356
-357 -355
-357 -356
355 356 357
-358 -335
-358 -345
335 345 358
-359 335
-359 -357
-335 357 359
-360 -358
-360 -359
358 359 360
-361 73
-361 169
-73 -169 361
-362 -11
-362 361
11 -361 362
-363 80
-363 235
-80 -235 363
-364 -12
-364 363
12 -363 364
-365 87
-365 301
-87 -301 365
-366 -13
-366 365
13 -365 366
-367 362
-367 -364
-362 364 367
-368 -362
-368 364
362 -364 368
-369 -367
-369 -368
367 368 369
-370 362
-370 364
-362 -364 370
-371 -366
-371 -369
366 369 371
-372 366
-372 369
-366 -369 372
-373 -371
-373 -372
371 372 373
-374 366
-374 -369
-366 369 374
-375 370
-375 -374
-370 374 375
-376 -370
-376 374
370 -374 376
-377 -375
-377 -376
375 376 377
-378 370
-378 374
-370 -374 378
-379 -373
-379 -377
373 377 379
-380 -128
-380 -129
128 129 380
-381 -335
-381 346
335 -346 381
-382 -343
-382 347
343 -347 382
-383 -379
-383 -381
379 381 383
-384 -380
-384 -382
380 382 384
-385 383
-385 384
-383 -384 385
-385
